p tw 200 3980
1 3
1 4
1 5
1 12
1 21
1 27
1 29
1 31
1 38
1 40
1 46
1 47
1 50
1 59
1 61
1 62
1 72
1 75
1 78
1 91
1 92
1 93
1 100
1 104
1 105
1 114
1 117
1 122
1 128
1 131
1 136
1 142
1 143
1 150
1 151
1 153
1 155
1 157
1 159
1 161
1 162
1 163
1 165
1 166
1 167
1 180
1 183
1 189
1 200
2 6
2 15
2 18
2 22
2 24
2 26
2 33
2 35
2 36
2 48
2 55
2 56
2 63
2 68
2 80
2 93
2 108
2 114
2 115
2 124
2 134
2 138
2 139
2 145
2 149
2 150
2 154
2 156
2 161
2 167
2 170
2 175
2 176
2 180
2 183
2 184
2 187
2 194
2 195
2 198
2 200
3 12
3 24
3 25
3 26
3 28
3 29
3 43
3 45
3 53
3 54
3 59
3 60
3 63
3 73
3 76
3 107
3 108
3 110
3 111
3 117
3 121
3 128
3 129
3 141
3 143
3 150
3 153
3 159
3 173
3 178
3 197
4 5
4 8
4 9
4 26
4 30
4 34
4 35
4 42
4 66
4 70
4 74
4 78
4 83
4 84
4 89
4 127
4 131
4 133
4 137
4 151
4 165
4 176
4 177
4 180
4 186
4 188
4 189
4 196
4 197
4 198
5 11
5 33
5 42
5 43
5 48
5 50
5 53
5 62
5 88
5 89
5 93
5 95
5 100
5 101
5 118
5 119
5 121
5 123
5 124
5 125
5 128
5 129
5 130
5 138
5 146
5 148
5 157
5 160
5 168
5 182
5 188
5 190
5 198
6 11
6 16
6 18
6 22
6 23
6 29
6 35
6 39
6 41
6 42
6 44
6 46
6 56
6 63
6 67
6 69
6 72
6 76
6 79
6 80
6 83
6 89
6 90
6 99
6 100
6 108
6 113
6 114
6 119
6 130
6 134
6 140
6 152
6 160
6 162
6 166
6 167
6 173
6 175
6 177
6 178
6 192
6 195
6 196
6 197
7 9
7 15
7 21
7 24
7 32
7 33
7 35
7 47
7 52
7 55
7 64
7 67
7 68
7 69
7 70
7 80
7 81
7 89
7 94
7 105
7 110
7 112
7 129
7 134
7 135
7 139
7 145
7 149
7 157
7 161
7 164
7 170
7 171
7 176
7 177
8 10
8 12
8 19
8 24
8 37
8 48
8 55
8 56
8 58
8 63
8 64
8 70
8 71
8 78
8 80
8 95
8 97
8 98
8 101
8 108
8 113
8 122
8 123
8 125
8 131
8 134
8 138
8 141
8 143
8 146
8 150
8 154
8 159
8 160
8 174
8 184
9 12
9 14
9 17
9 23
9 24
9 28
9 30
9 39
9 40
9 44
9 52
9 57
9 65
9 70
9 75
9 84
9 95
9 96
9 98
9 99
9 101
9 103
9 106
9 108
9 109
9 122
9 123
9 127
9 131
9 135
9 146
9 147
9 151
9 160
9 161
9 162
9 165
9 175
9 179
9 185
9 188
9 190
9 200
10 14
10 16
10 19
10 26
10 30
10 33
10 34
10 36
10 41
10 44
10 47
10 54
10 64
10 71
10 79
10 80
10 88
10 92
10 93
10 101
10 102
10 108
10 111
10 115
10 117
10 137
10 138
10 144
10 151
10 154
10 155
10 156
10 170
10 188
10 191
10 198
11 12
11 13
11 15
11 17
11 18
11 23
11 25
11 39
11 42
11 43
11 48
11 52
11 65
11 71
11 75
11 86
11 92
11 98
11 99
11 101
11 102
11 103
11 104
11 114
11 120
11 122
11 130
11 132
11 138
11 141
11 153
11 157
11 164
11 170
11 176
11 179
11 181
11 182
11 188
11 190
11 193
12 13
12 15
12 17
12 20
12 28
12 30
12 40
12 42
12 46
12 48
12 56
12 58
12 60
12 72
12 74
12 75
12 76
12 82
12 87
12 93
12 94
12 100
12 105
12 109
12 115
12 121
12 122
12 123
12 132
12 134
12 135
12 143
12 145
12 150
12 151
12 154
12 157
12 160
12 161
12 163
12 166
12 169
12 170
12 175
12 180
12 183
12 187
12 196
12 200
13 15
13 24
13 25
13 38
13 43
13 49
13 51
13 55
13 57
13 61
13 78
13 80
13 83
13 85
13 86
13 93
13 94
13 95
13 96
13 99
13 102
13 107
13 110
13 113
13 118
13 121
13 125
13 130
13 135
13 139
13 144
13 147
13 149
13 151
13 170
13 172
13 178
13 186
13 197
14 20
14 22
14 23
14 28
14 31
14 34
14 35
14 43
14 46
14 48
14 53
14 54
14 56
14 74
14 82
14 85
14 86
14 93
14 99
14 102
14 103
14 107
14 113
14 115
14 119
14 122
14 130
14 131
14 142
14 149
14 156
14 157
14 160
14 173
14 177
14 187
14 192
14 195
14 198
15 16
15 20
15 21
15 30
15 33
15 38
15 42
15 43
15 45
15 47
15 49
15 51
15 54
15 55
15 59
15 60
15 66
15 72
15 75
15 80
15 81
15 83
15 96
15 97
15 98
15 105
15 106
15 108
15 111
15 115
15 117
15 129
15 137
15 143
15 160
15 170
15 187
15 196
15 199
16 17
16 18
16 20
16 22
16 25
16 31
16 32
16 37
16 45
16 46
16 61
16 63
16 69
16 75
16 77
16 80
16 90
16 94
16 95
16 97
16 98
16 105
16 109
16 118
16 123
16 125
16 127
16 132
16 150
16 151
16 155
16 162
16 171
16 174
16 183
16 193
16 195
16 197
16 199
17 24
17 26
17 27
17 34
17 37
17 40
17 44
17 50
17 51
17 55
17 66
17 68
17 70
17 77
17 78
17 80
17 85
17 89
17 91
17 100
17 101
17 102
17 103
17 104
17 109
17 112
17 114
17 119
17 121
17 128
17 130
17 133
17 137
17 142
17 147
17 152
17 153
17 158
17 161
17 162
17 165
17 172
17 173
17 180
17 181
17 183
17 192
17 194
17 195
17 199
17 200
18 27
18 28
18 37
18 45
18 51
18 53
18 54
18 61
18 67
18 79
18 83
18 87
18 94
18 99
18 101
18 105
18 108
18 109
18 110
18 112
18 119
18 123
18 154
18 165
18 166
18 167
18 170
18 189
18 191
18 193
18 200
19 27
19 33
19 39
19 47
19 49
19 53
19 56
19 57
19 81
19 90
19 93
19 104
19 109
19 118
19 121
19 127
19 129
19 130
19 133
19 141
19 149
19 152
19 155
19 160
19 163
19 166
19 170
19 177
19 179
19 191
20 21
20 24
20 37
20 40
20 43
20 50
20 54
20 55
20 56
20 62
20 64
20 71
20 74
20 83
20 96
20 107
20 113
20 115
20 119
20 128
20 135
20 139
20 142
20 145
20 146
20 149
20 152
20 153
20 166
20 167
20 169
20 173
20 175
20 176
20 181
20 184
20 193
20 195
21 27
21 28
21 33
21 40
21 45
21 57
21 58
21 63
21 65
21 66
21 67
21 73
21 78
21 88
21 92
21 94
21 98
21 113
21 115
21 117
21 118
21 123
21 126
21 130
21 138
21 142
21 150
21 156
21 160
21 164
21 166
21 169
21 173
21 177
21 182
21 184
21 185
21 188
21 190
21 194
21 200
22 23
22 26
22 28
22 31
22 32
22 34
22 36
22 39
22 41
22 43
22 50
22 59
22 60
22 67
22 69
22 70
22 80
22 85
22 88
22 93
22 99
22 108
22 109
22 117
22 121
22 125
22 126
22 128
22 130
22 131
22 137
22 138
22 140
22 141
22 143
22 144
22 145
22 147
22 150
22 153
22 154
22 159
22 165
22 170
22 173
22 190
22 198
22 200
23 29
23 34
23 38
23 50
23 71
23 72
23 87
23 91
23 115
23 126
23 128
23 129
23 140
23 148
23 149
23 150
23 155
23 156
23 159
23 165
23 168
23 169
23 174
23 177
23 178
23 180
23 189
23 195
23 200
24 25
24 32
24 39
24 41
24 47
24 57
24 68
24 72
24 80
24 81
24 87
24 88
24 103
24 104
24 105
24 109
24 110
24 111
24 112
24 113
24 122
24 129
24 136
24 138
24 146
24 149
24 154
24 158
24 165
24 168
24 171
24 175
24 178
24 182
24 187
24 191
24 194
24 197
24 200
25 27
25 34
25 39
25 48
25 52
25 77
25 89
25 91
25 95
25 102
25 105
25 106
25 116
25 117
25 119
25 125
25 138
25 146
25 149
25 152
25 154
25 159
25 163
25 165
25 170
25 175
25 179
25 192
25 194
26 27
26 30
26 37
26 38
26 39
26 40
26 41
26 45
26 51
26 55
26 58
26 63
26 68
26 80
26 82
26 84
26 86
26 97
26 98
26 101
26 108
26 113
26 114
26 125
26 130
26 132
26 133
26 137
26 139
26 143
26 144
26 146
26 148
26 160
26 176
26 181
26 184
26 194
27 29
27 38
27 44
27 48
27 50
27 56
27 63
27 65
27 66
27 74
27 81
27 89
27 90
27 96
27 101
27 116
27 117
27 118
27 119
27 124
27 128
27 134
27 141
27 145
27 148
27 150
27 152
27 153
27 157
27 160
27 163
27 164
27 166
27 168
27 169
27 173
27 179
27 183
27 187
27 193
28 31
28 32
28 34
28 45
28 49
28 50
28 55
28 58
28 66
28 68
28 70
28 71
28 77
28 79
28 86
28 89
28 96
28 98
28 105
28 109
28 111
28 112
28 117
28 122
28 125
28 129
28 131
28 134
28 142
28 151
28 154
28 160
28 168
28 174
28 175
28 178
28 181
28 183
28 184
28 190
28 192
28 198
29 31
29 42
29 43
29 48
29 50
29 51
29 57
29 62
29 63
29 80
29 81
29 84
29 86
29 90
29 91
29 105
29 106
29 109
29 119
29 124
29 126
29 134
29 139
29 140
29 154
29 155
29 161
29 162
29 166
29 169
29 172
29 175
29 176
29 181
29 190
29 193
29 194
29 196
30 32
30 35
30 37
30 38
30 40
30 41
30 43
30 46
30 50
30 69
30 71
30 72
30 73
30 80
30 82
30 86
30 90
30 92
30 99
30 100
30 103
30 107
30 109
30 110
30 115
30 120
30 122
30 133
30 137
30 146
30 147
30 151
30 153
30 156
30 174
30 182
30 183
30 189
30 192
30 194
30 196
30 199
31 39
31 47
31 48
31 51
31 52
31 65
31 68
31 78
31 83
31 86
31 89
31 107
31 115
31 129
31 132
31 137
31 151
31 153
31 162
31 176
31 185
31 192
31 198
31 200
32 36
32 46
32 49
32 51
32 56
32 60
32 64
32 68
32 82
32 83
32 84
32 93
32 97
32 102
32 109
32 111
32 121
32 123
32 126
32 135
32 148
32 149
32 153
32 186
32 187
32 195
32 196
32 197
33 50
33 52
33 53
33 57
33 69
33 73
33 81
33 82
33 86
33 89
33 90
33 96
33 110
33 119
33 122
33 123
33 134
33 138
33 139
33 147
33 148
33 149
33 151
33 160
33 165
33 168
33 172
33 177
33 178
33 180
33 188
33 190
33 191
33 195
34 38
34 45
34 50
34 55
34 68
34 73
34 74
34 75
34 79
34 83
34 87
34 97
34 103
34 104
34 114
34 118
34 123
34 137
34 146
34 147
34 149
34 150
34 158
34 168
34 170
34 177
34 181
34 186
34 188
35 37
35 52
35 53
35 67
35 75
35 77
35 83
35 87
35 92
35 93
35 103
35 122
35 126
35 127
35 130
35 134
35 135
35 140
35 141
35 157
35 158
35 164
35 166
35 179
35 181
35 184
35 190
36 38
36 46
36 49
36 67
36 75
36 77
36 79
36 87
36 91
36 93
36 95
36 99
36 108
36 111
36 113
36 115
36 119
36 137
36 138
36 147
36 153
36 154
36 157
36 200
37 47
37 48
37 49
37 51
37 57
37 60
37 70
37 73
37 74
37 75
37 84
37 85
37 92
37 95
37 107
37 113
37 117
37 118
37 119
37 131
37 143
37 144
37 158
37 164
37 165
37 167
37 176
37 181
37 184
37 195
38 43
38 48
38 57
38 60
38 67
38 69
38 83
38 85
38 87
38 89
38 90
38 91
38 97
38 125
38 155
38 156
38 160
38 164
38 169
38 171
38 174
38 175
38 194
38 198
38 200
39 40
39 42
39 44
39 55
39 73
39 78
39 82
39 88
39 100
39 103
39 107
39 116
39 128
39 138
39 141
39 142
39 144
39 149
39 153
39 159
39 163
39 169
39 172
39 177
39 191
39 194
39 200
40 45
40 46
40 51
40 59
40 62
40 67
40 73
40 78
40 79
40 81
40 82
40 83
40 91
40 92
40 93
40 94
40 103
40 109
40 113
40 114
40 126
40 127
40 137
40 140
40 145
40 147
40 149
40 156
40 157
40 163
40 164
40 165
40 168
40 170
40 180
40 190
40 191
40 198
41 42
41 45
41 48
41 53
41 58
41 62
41 68
41 69
41 77
41 78
41 80
41 89
41 90
41 92
41 96
41 101
41 103
41 105
41 107
41 112
41 113
41 127
41 128
41 136
41 153
41 157
41 161
41 164
41 170
41 176
41 177
41 178
41 190
41 193
41 197
42 44
42 46
42 51
42 54
42 56
42 58
42 59
42 62
42 78
42 79
42 80
42 88
42 92
42 96
42 103
42 113
42 120
42 124
42 128
42 138
42 142
42 144
42 151
42 154
42 156
42 160
42 161
42 166
42 175
42 183
42 187
42 189
42 191
43 46
43 50
43 52
43 53
43 62
43 68
43 77
43 90
43 94
43 96
43 101
43 109
43 121
43 123
43 128
43 130
43 132
43 138
43 139
43 143
43 146
43 149
43 161
43 171
43 176
43 179
43 182
43 194
44 47
44 66
44 81
44 86
44 87
44 88
44 98
44 112
44 127
44 128
44 131
44 133
44 137
44 139
44 140
44 141
44 148
44 149
44 150
44 154
44 155
44 170
44 175
44 180
44 182
44 183
45 51
45 57
45 63
45 64
45 65
45 72
45 77
45 80
45 82
45 87
45 90
45 96
45 111
45 115
45 118
45 125
45 140
45 147
45 154
45 157
45 158
45 169
45 177
46 49
46 64
46 68
46 69
46 70
46 72
46 74
46 77
46 79
46 81
46 85
46 93
46 97
46 104
46 107
46 119
46 122
46 127
46 129
46 140
46 142
46 147
46 156
46 172
46 174
46 178
46 186
46 190
46 192
46 199
47 51
47 52
47 55
47 60
47 72
47 77
47 81
47 89
47 90
47 97
47 99
47 108
47 109
47 112
47 115
47 117
47 127
47 128
47 139
47 142
47 148
47 160
47 161
47 168
47 174
47 176
47 179
47 182
47 191
47 192
47 198
47 200
48 58
48 63
48 72
48 76
48 80
48 85
48 86
48 87
48 96
48 97
48 99
48 117
48 118
48 120
48 123
48 154
48 158
48 161
48 166
48 169
48 175
48 179
48 195
48 196
48 200
49 60
49 64
49 71
49 72
49 75
49 78
49 84
49 85
49 100
49 104
49 105
49 110
49 116
49 125
49 133
49 136
49 139
49 151
49 152
49 164
49 166
49 169
49 172
49 173
49 176
49 188
49 189
49 193
49 199
50 51
50 53
50 54
50 56
50 63
50 64
50 67
50 68
50 81
50 84
50 85
50 90
50 95
50 127
50 130
50 132
50 134
50 136
50 137
50 150
50 152
50 156
50 182
50 185
50 186
50 188
50 190
51 58
51 61
51 78
51 82
51 85
51 87
51 89
51 90
51 91
51 97
51 107
51 112
51 119
51 121
51 136
51 145
51 154
51 160
51 162
51 169
51 172
51 174
51 190
51 191
51 199
52 66
52 67
52 69
52 73
52 78
52 81
52 83
52 89
52 96
52 97
52 100
52 103
52 107
52 121
52 124
52 127
52 138
52 139
52 140
52 145
52 149
52 151
52 153
52 162
52 178
52 189
52 195
53 54
53 60
53 61
53 66
53 75
53 76
53 84
53 87
53 89
53 105
53 124
53 127
53 130
53 131
53 157
53 158
53 160
53 163
53 165
53 166
53 173
53 178
53 179
53 180
53 181
53 182
53 183
54 59
54 60
54 62
54 66
54 68
54 80
54 99
54 102
54 104
54 115
54 117
54 125
54 135
54 139
54 143
54 144
54 150
54 153
54 156
54 158
54 159
54 161
54 166
54 175
54 184
54 186
54 188
55 62
55 70
55 73
55 76
55 77
55 80
55 83
55 84
55 93
55 96
55 98
55 103
55 104
55 110
55 114
55 123
55 124
55 133
55 134
55 146
55 152
55 154
55 157
55 158
55 159
55 163
55 166
55 180
55 182
55 185
55 187
55 188
55 189
55 197
55 200
56 60
56 62
56 75
56 77
56 85
56 87
56 101
56 102
56 108
56 114
56 115
56 129
56 132
56 136
56 138
56 144
56 146
56 148
56 156
56 164
56 165
56 166
56 168
56 170
56 174
56 184
56 186
56 187
56 190
56 194
56 199
57 58
57 69
57 70
57 73
57 75
57 82
57 84
57 92
57 99
57 100
57 108
57 112
57 115
57 121
57 128
57 142
57 147
57 149
57 158
57 161
57 167
57 171
57 174
57 175
57 186
57 189
57 197
58 61
58 64
58 78
58 79
58 86
58 91
58 93
58 96
58 102
58 104
58 105
58 106
58 107
58 113
58 121
58 122
58 123
58 124
58 125
58 129
58 131
58 132
58 133
58 135
58 142
58 144
58 149
58 150
58 170
58 180
58 183
58 186
58 195
58 198
59 61
59 66
59 67
59 79
59 85
59 94
59 97
59 98
59 100
59 108
59 119
59 120
59 128
59 132
59 133
59 148
59 149
59 152
59 155
59 156
59 184
59 187
59 196
60 63
60 65
60 66
60 78
60 79
60 82
60 85
60 88
60 91
60 92
60 96
60 99
60 118
60 119
60 121
60 129
60 135
60 147
60 148
60 150
60 155
60 156
60 165
60 167
60 169
60 173
60 192
60 196
60 199
61 62
61 64
61 66
61 78
61 87
61 93
61 94
61 96
61 100
61 103
61 109
61 115
61 125
61 128
61 139
61 144
61 145
61 146
61 150
61 164
61 167
61 176
61 178
61 185
61 191
61 200
62 63
62 72
62 73
62 79
62 85
62 96
62 97
62 104
62 115
62 124
62 126
62 140
62 141
62 145
62 156
62 159
62 160
62 161
62 167
62 168
62 173
62 177
62 199
63 64
63 71
63 78
63 86
63 87
63 88
63 90
63 107
63 114
63 116
63 120
63 121
63 124
63 128
63 133
63 135
63 136
63 141
63 143
63 144
63 150
63 157
63 159
63 161
63 168
63 180
63 182
63 185
63 188
63 199
64 66
64 72
64 76
64 81
64 90
64 92
64 95
64 96
64 99
64 103
64 108
64 129
64 137
64 139
64 141
64 161
64 163
64 166
64 167
64 175
64 180
64 181
64 187
64 192
64 195
65 67
65 72
65 81
65 83
65 84
65 89
65 94
65 96
65 101
65 108
65 114
65 118
65 126
65 129
65 134
65 139
65 140
65 141
65 142
65 149
65 150
65 151
65 152
65 153
65 157
65 161
65 164
65 171
65 174
65 176
65 177
65 192
66 68
66 70
66 77
66 79
66 81
66 86
66 90
66 94
66 95
66 117
66 127
66 128
66 129
66 131
66 134
66 146
66 151
66 154
66 157
66 159
66 160
66 168
66 169
66 175
66 186
66 195
67 71
67 75
67 76
67 77
67 87
67 92
67 93
67 100
67 101
67 115
67 116
67 119
67 121
67 130
67 134
67 136
67 141
67 143
67 144
67 152
67 155
67 162
67 164
67 172
67 177
67 181
67 183
67 189
67 190
67 192
67 195
67 197
68 82
68 83
68 85
68 90
68 109
68 120
68 124
68 130
68 136
68 152
68 154
68 166
68 167
68 169
68 172
68 173
68 176
68 187
68 188
68 191
68 195
69 70
69 78
69 84
69 86
69 88
69 89
69 104
69 108
69 113
69 115
69 117
69 119
69 121
69 122
69 126
69 130
69 131
69 136
69 139
69 158
69 159
69 165
69 166
69 174
69 175
69 176
69 179
69 182
69 183
69 187
69 189
69 196
69 197
70 78
70 98
70 106
70 112
70 119
70 124
70 128
70 136
70 137
70 172
70 180
70 184
70 188
70 198
70 200
71 72
71 74
71 76
71 81
71 83
71 84
71 87
71 89
71 92
71 100
71 103
71 105
71 115
71 116
71 118
71 119
71 125
71 128
71 130
71 139
71 143
71 146
71 149
71 150
71 151
71 156
71 162
71 167
71 168
71 176
71 178
71 185
71 186
71 190
71 192
71 197
72 73
72 78
72 80
72 81
72 83
72 85
72 92
72 104
72 116
72 117
72 120
72 121
72 123
72 131
72 133
72 135
72 137
72 142
72 144
72 145
72 152
72 153
72 155
72 156
72 161
72 168
72 177
72 186
72 189
72 193
72 200
73 74
73 84
73 85
73 86
73 99
73 101
73 102
73 103
73 107
73 115
73 118
73 123
73 125
73 144
73 158
73 160
73 165
73 166
73 169
73 175
73 180
73 185
73 187
73 191
74 98
74 104
74 115
74 118
74 120
74 121
74 123
74 125
74 126
74 139
74 146
74 148
74 150
74 151
74 156
74 157
74 158
74 162
74 168
74 181
74 187
74 189
74 193
74 196
75 76
75 77
75 82
75 84
75 87
75 88
75 98
75 99
75 101
75 103
75 109
75 111
75 117
75 118
75 126
75 128
75 140
75 142
75 148
75 154
75 155
75 159
75 173
75 175
75 180
75 181
75 183
75 186
75 191
75 198
75 200
76 78
76 80
76 93
76 98
76 99
76 106
76 110
76 113
76 129
76 131
76 135
76 139
76 141
76 143
76 162
76 166
76 169
76 175
76 176
76 181
76 184
76 188
76 190
76 192
76 193
76 197
76 199
77 80
77 95
77 100
77 101
77 105
77 106
77 112
77 113
77 119
77 121
77 122
77 124
77 126
77 127
77 129
77 130
77 131
77 139
77 143
77 163
77 166
77 178
77 183
77 184
77 188
77 199
78 80
78 83
78 90
78 95
78 96
78 99
78 102
78 111
78 113
78 120
78 121
78 138
78 147
78 156
78 160
78 165
78 169
78 170
78 174
78 179
78 184
78 187
78 199
79 84
79 88
79 94
79 95
79 109
79 111
79 113
79 115
79 118
79 119
79 129
79 132
79 133
79 134
79 143
79 145
79 146
79 147
79 151
79 152
79 157
79 172
79 176
79 183
79 187
79 190
79 199
80 85
80 86
80 87
80 88
80 92
80 94
80 96
80 104
80 111
80 112
80 115
80 117
80 118
80 123
80 124
80 131
80 134
80 135
80 136
80 142
80 144
80 147
80 151
80 153
80 154
80 158
80 169
80 178
80 183
80 189
80 193
80 196
81 90
81 93
81 95
81 96
81 106
81 115
81 134
81 137
81 139
81 144
81 146
81 148
81 150
81 157
81 165
81 167
81 168
81 175
81 177
81 179
81 194
81 196
81 197
81 200
82 86
82 89
82 92
82 98
82 101
82 105
82 110
82 124
82 132
82 137
82 138
82 147
82 149
82 151
82 153
82 154
82 155
82 158
82 164
82 169
82 170
82 188
82 200
83 85
83 109
83 115
83 116
83 119
83 125
83 127
83 128
83 129
83 131
83 132
83 135
83 141
83 148
83 150
83 159
83 185
83 198
84 86
84 89
84 99
84 116
84 119
84 125
84 143
84 145
84 154
84 160
84 162
84 169
84 171
84 195
85 94
85 104
85 106
85 115
85 123
85 129
85 133
85 137
85 140
85 146
85 149
85 150
85 153
85 155
85 171
85 175
85 180
85 181
85 197
86 91
86 95
86 97
86 99
86 104
86 108
86 114
86 117
86 123
86 128
86 131
86 134
86 136
86 141
86 144
86 156
86 161
86 166
86 167
86 170
86 173
86 177
86 178
86 179
86 181
86 184
86 189
86 199
87 95
87 97
87 98
87 101
87 104
87 106
87 118
87 128
87 129
87 131
87 132
87 137
87 145
87 146
87 148
87 149
87 151
87 158
87 165
87 171
87 177
87 178
87 190
87 191
87 193
88 101
88 103
88 109
88 117
88 119
88 132
88 137
88 141
88 143
88 149
88 151
88 153
88 154
88 165
88 167
88 170
88 184
88 187
88 191
88 194
88 199
89 91
89 97
89 101
89 106
89 107
89 112
89 117
89 118
89 119
89 123
89 127
89 131
89 132
89 134
89 140
89 144
89 150
89 154
89 157
89 164
89 165
89 167
89 171
89 177
89 179
89 184
89 193
89 196
89 200
90 92
90 94
90 97
90 101
90 103
90 105
90 116
90 121
90 149
90 150
90 153
90 159
90 160
90 161
90 174
90 179
90 183
90 188
90 192
90 194
90 197
90 199
90 200
91 97
91 103
91 110
91 111
91 118
91 120
91 122
91 124
91 131
91 138
91 147
91 149
91 151
91 153
91 184
91 193
91 199
91 200
92 94
92 95
92 96
92 97
92 104
92 107
92 127
92 132
92 137
92 146
92 151
92 158
92 164
92 176
92 183
92 196
93 97
93 107
93 108
93 109
93 113
93 114
93 122
93 132
93 149
93 152
93 153
93 154
93 168
93 169
93 172
93 173
93 175
93 183
93 185
93 191
93 194
94 96
94 97
94 98
94 100
94 101
94 103
94 113
94 123
94 124
94 127
94 141
94 161
94 162
94 173
94 175
94 176
94 186
94 192
94 193
94 196
94 198
95 101
95 108
95 120
95 123
95 125
95 127
95 131
95 140
95 151
95 153
95 154
95 163
95 189
96 108
96 111
96 113
96 116
96 118
96 125
96 130
96 134
96 136
96 141
96 145
96 146
96 150
96 159
96 162
96 165
96 167
96 168
96 172
96 175
96 185
96 189
96 193
96 195
96 198
96 199
97 98
97 99
97 111
97 113
97 114
97 116
97 120
97 128
97 129
97 134
97 136
97 143
97 154
97 160
97 161
97 164
97 168
97 173
97 174
97 175
97 179
97 181
97 182
97 185
97 192
97 196
98 99
98 106
98 112
98 113
98 114
98 116
98 118
98 120
98 122
98 124
98 131
98 138
98 152
98 185
98 187
98 188
98 192
98 197
98 200
99 107
99 110
99 112
99 123
99 127
99 129
99 133
99 140
99 148
99 152
99 155
99 159
99 168
99 170
99 177
99 179
99 182
99 187
99 189
99 193
99 200
100 113
100 117
100 122
100 127
100 130
100 132
100 136
100 138
100 142
100 143
100 144
100 147
100 150
100 151
100 152
100 157
100 158
100 159
100 163
100 165
100 166
100 174
100 176
100 178
100 182
100 183
100 192
100 197
100 200
101 104
101 108
101 111
101 115
101 126
101 127
101 132
101 134
101 138
101 141
101 144
101 146
101 151
101 162
101 163
101 175
101 186
101 200
102 114
102 116
102 117
102 118
102 120
102 122
102 129
102 134
102 149
102 153
102 155
102 161
102 162
102 171
102 174
102 180
102 182
102 186
102 191
102 197
103 111
103 113
103 120
103 127
103 129
103 130
103 131
103 136
103 140
103 141
103 151
103 161
103 164
103 166
103 169
103 181
103 183
103 197
103 198
104 108
104 111
104 113
104 118
104 120
104 129
104 144
104 149
104 152
104 153
104 160
104 161
104 165
104 172
104 173
104 189
104 192
104 193
104 194
104 195
104 199
105 107
105 110
105 118
105 120
105 124
105 126
105 128
105 132
105 133
105 139
105 143
105 146
105 150
105 153
105 161
105 165
105 172
105 175
105 177
105 179
105 180
105 182
105 194
106 107
106 111
106 119
106 120
106 121
106 122
106 123
106 129
106 135
106 146
106 151
106 153
106 163
106 165
106 166
106 169
106 170
106 176
106 182
106 186
106 195
107 108
107 116
107 119
107 128
107 129
107 134
107 138
107 143
107 150
107 154
107 157
107 159
107 160
107 165
107 175
107 179
107 184
107 190
107 196
108 111
108 116
108 121
108 122
108 133
108 135
108 138
108 141
108 142
108 144
108 150
108 152
108 153
108 155
108 158
108 163
108 168
108 174
109 113
109 118
109 120
109 121
109 130
109 132
109 133
109 135
109 136
109 140
109 141
109 145
109 148
109 163
109 165
109 166
109 175
109 177
109 179
109 187
109 191
109 192
109 193
110 112
110 114
110 115
110 117
110 118
110 121
110 132
110 148
110 152
110 153
110 164
110 166
110 170
110 178
110 195
110 198
111 129
111 132
111 138
111 140
111 144
111 145
111 153
111 156
111 168
111 173
111 174
111 185
111 189
111 191
111 193
111 196
112 116
112 121
112 123
112 124
112 131
112 133
112 134
112 135
112 138
112 145
112 147
112 156
112 158
112 160
112 165
112 176
112 183
112 191
112 192
112 195
112 196
113 121
113 123
113 136
113 140
113 148
113 151
113 158
113 160
113 172
113 183
113 191
113 195
113 197
113 198
114 116
114 117
114 120
114 124
114 128
114 129
114 142
114 143
114 149
114 150
114 154
114 158
114 164
114 170
114 174
114 180
114 181
114 184
114 188
114 192
114 197
114 200
115 123
115 126
115 139
115 147
115 151
115 154
115 158
115 166
115 173
115 175
115 191
115 195
115 197
116 122
116 124
116 127
116 128
116 132
116 140
116 141
116 145
116 151
116 159
116 161
116 172
116 184
116 188
116 191
116 193
116 198
116 200
117 122
117 136
117 148
117 152
117 157
117 159
117 169
117 170
117 176
117 189
117 193
117 196
117 197
118 119
118 126
118 129
118 131
118 137
118 141
118 144
118 145
118 151
118 161
118 166
118 168
118 169
118 170
118 171
118 175
118 180
118 181
118 187
118 192
118 200
119 141
119 146
119 153
119 156
119 161
119 164
119 170
119 176
119 179
119 180
119 198
120 125
120 126
120 127
120 129
120 134
120 140
120 150
120 152
120 153
120 154
120 159
120 162
120 169
120 173
120 175
120 180
120 185
120 186
120 197
120 198
121 123
121 128
121 142
121 144
121 153
121 159
121 167
121 169
121 177
121 179
121 181
121 186
121 188
121 189
121 195
122 130
122 133
122 137
122 138
122 140
122 141
122 147
122 157
122 163
122 168
122 173
122 180
122 188
122 190
122 192
123 128
123 136
123 142
123 143
123 151
123 163
123 164
123 166
123 169
123 170
123 175
123 177
123 182
123 196
124 127
124 129
124 130
124 132
124 138
124 139
124 142
124 152
124 154
124 155
124 176
124 182
124 190
124 192
124 193
124 196
124 197
124 199
125 126
125 128
125 134
125 135
125 166
125 172
125 177
125 184
125 190
125 194
125 196
125 198
126 130
126 135
126 145
126 146
126 148
126 150
126 154
126 161
126 164
126 168
126 172
126 177
126 184
126 189
126 195
126 197
127 138
127 142
127 145
127 150
127 152
127 157
127 165
127 171
127 172
127 173
127 174
127 179
127 180
127 185
127 192
127 193
128 131
128 138
128 143
128 144
128 151
128 155
128 163
128 165
128 168
128 172
128 173
128 178
128 181
128 183
128 185
128 195
129 143
129 154
129 162
129 164
129 178
129 179
129 181
129 183
129 188
129 194
129 196
129 198
130 132
130 133
130 134
130 141
130 162
130 166
130 167
130 170
130 174
130 194
131 134
131 139
131 149
131 150
131 161
131 163
131 166
131 167
131 171
131 172
131 173
131 177
131 188
131 189
131 191
131 200
132 133
132 138
132 141
132 147
132 148
132 156
132 159
132 169
132 171
132 173
132 176
132 177
132 183
132 189
132 191
132 195
132 198
133 143
133 144
133 146
133 155
133 156
133 158
133 159
133 176
133 189
133 190
133 191
133 198
134 135
134 137
134 139
134 140
134 146
134 148
134 150
134 155
134 158
134 161
134 163
134 181
135 140
135 141
135 142
135 154
135 156
135 166
135 170
135 175
135 177
135 188
135 190
136 137
136 155
136 156
136 173
136 178
136 179
136 185
136 186
136 188
136 189
136 197
137 147
137 148
137 155
137 157
137 165
137 175
137 181
137 182
137 189
137 192
137 199
138 147
138 151
138 154
138 157
138 159
138 161
138 162
138 163
138 166
138 168
138 172
138 179
138 185
139 143
139 152
139 158
139 163
139 168
139 169
139 171
139 176
139 178
139 179
139 180
139 185
139 188
139 189
140 144
140 161
140 177
140 183
140 190
140 195
140 197
140 199
141 150
141 151
141 173
141 176
141 178
141 179
141 181
141 184
141 199
142 145
142 149
142 153
142 156
142 162
142 168
142 171
142 173
142 185
142 193
143 154
143 155
143 158
143 165
143 174
143 179
143 181
143 183
144 156
144 157
144 164
144 165
144 174
144 179
144 181
144 191
144 193
144 200
145 151
145 152
145 154
145 156
145 158
145 170
145 171
145 172
145 177
145 183
145 186
146 148
146 150
146 151
146 153
146 155
146 159
146 161
146 172
146 176
146 178
146 179
146 182
146 185
146 186
146 191
147 150
147 162
147 164
147 166
147 170
147 171
147 173
147 175
147 185
147 186
147 189
147 192
147 199
147 200
148 152
148 157
148 159
148 160
148 162
148 177
148 178
148 184
148 198
149 162
149 168
149 172
149 174
149 175
149 176
149 178
149 199
150 157
150 158
150 162
150 163
150 167
150 171
150 172
150 184
150 187
150 188
150 200
151 154
151 158
151 159
151 161
151 165
151 166
151 177
151 178
151 180
151 182
151 198
152 165
152 167
152 172
152 177
152 189
152 191
152 193
153 157
153 168
153 170
153 175
153 179
153 184
153 185
153 190
154 157
154 165
154 169
154 176
154 177
154 179
154 185
154 189
154 193
154 198
155 162
155 163
155 167
155 170
155 171
155 177
155 178
155 180
155 184
155 187
155 196
155 197
155 198
156 184
156 191
156 194
156 199
157 160
157 165
157 169
157 174
157 180
157 187
157 195
157 200
158 161
158 165
158 166
158 170
158 171
158 173
158 174
158 179
158 181
158 182
158 187
158 190
158 196
159 171
159 172
159 175
159 178
159 185
159 191
159 194
159 196
160 170
160 172
160 176
160 179
160 180
160 188
160 194
160 196
161 167
161 175
161 176
161 186
161 187
161 198
161 200
162 163
162 167
162 168
162 176
162 180
163 169
163 182
163 185
163 188
163 190
163 197
163 199
163 200
164 166
164 167
164 174
164 187
164 190
164 199
165 173
165 180
165 181
165 188
165 199
166 169
166 178
166 183
166 189
166 190
166 191
166 197
167 169
167 176
167 177
167 179
167 181
167 183
167 186
167 187
167 197
168 169
168 173
168 174
168 177
168 178
168 182
168 186
168 192
168 195
168 196
168 199
169 170
169 175
169 180
169 189
170 195
171 177
171 179
171 181
171 197
172 178
172 182
172 183
172 186
172 191
172 193
172 197
173 178
173 183
173 190
173 191
173 193
174 186
174 190
175 184
175 186
175 190
175 191
175 197
176 181
176 184
176 185
176 188
176 193
176 194
176 200
177 179
177 182
177 185
177 191
177 192
178 183
178 189
179 185
179 188
179 192
179 194
179 198
180 182
180 187
180 189
180 193
180 195
181 183
181 185
181 191
181 196
181 199
182 183
182 185
182 187
182 193
182 194
182 196
182 198
183 185
183 186
183 191
183 195
183 200
184 185
184 190
184 197
185 196
185 197
185 199
186 188
186 191
186 194
186 200
188 196
188 197
188 198
190 193
190 198
191 198
191 199
191 200
192 197
193 199
194 195
194 200
195 196
196 197
